15740
1 1 1 1 1 1 1 1 1 1
4 6 2 3 2 4 4 6 9 0 4 6 3 3 2 8 6 4 9 8 4 9 2 5 6 1 6 4 5 0 4 0 3 5 6 1 4 4 5 0 4 0 2 3 2 1 4 4 9 0 4 9 2 3 2 0 6 3 8 7 4 9 3 0 2 8 3 1 9 7 3 0 0 3 2 1 6 4 8 0 4 9 3 4 2 1 6 4 8 0 4 3 2 9 2 1 6 4 8 5